27426 18304 20432 63158 95114 12338 57961 95959 31773
50600 43447 21259 91584 50499 75286 2448 40548 32510
70847 5591 64215 13023 7514 94356 2195 55900 26743
2024 73712 22279 18812 5792 89959 10529 85245 1473
23567 71084 19096 29415 45266 37092 47758 94983 38966
56669 80615 82753 41869 73447 3848 50384 77386 56211
71734 67501 60506 61764 51849 10752 80745 53355 97391
4298 72943 26499 89212 49542 61664 68086 22888 82926
88630 83981 63362 59269 56519 35451 46784 13031 70389
